NCAR for the scf calcultion
Global Parameters
ISTART =  0            (Read existing wavefunction, if there)
# ICHARG =  11         (Non-self-consistent: GGA/LDA band structures)
LREAL  = Auto       (Projection operators: automatic)
ENCUT  =  400        (Cut-off energy for plane wave basis set, in eV)
# PREC   =  Accurate   (Precision level: Normal or Accurate)
LWAVE  = .TRUE.        (Write WAVECAR or not)
LCHARG = .TRUE.        (Write CHGCAR or not)

Electronic Relaxation
ISMEAR =  0            (Gaussian smearing, metals:1)
SIGMA  =  0.05         (Smearing value in eV, metals:0.2)
NELM   =  90           (Max electronic SCF steps)
EDIFF  =  1E-06        (SCF energy convergence, in eV)
