MAPbI3-cubic                            
   1.01200000000000     
     6.3473303784605406   -0.0000054451506895    0.0319110014750084
    -0.0000039764981535    6.3061235331198615   -0.0000342936537055
     0.0315072837721044   -0.0000347807563665    6.4029707049264291
   C    N    H    Pb   I 
     1     1     6     1     3
Selective dynamics
Direct
  0.9109409670353807  0.9999711585266182  0.9807208212807911   T   T   T
  0.1354540981733327  0.9998945596385478  0.0373102955794093   T   T   T
  0.8990522559138022  0.9998646419706891  0.8122629659210457   T   T   T
  0.8377849647980876  0.1409142143874184  0.0450391470748779   T   T   T
  0.8376414660274112  0.8591894606072175  0.0452197793112440   T   T   T
  0.2126907251084815  0.1318016789827868  0.9809981743843890   T   T   T
  0.2125815986507360  0.8678688167666918  0.9811120908490648   T   T   T
  0.1580650653795471  0.9999568491184033  0.1961912797544015   T   T   T
  0.4730692284790471  0.4999566083945433  0.4822092254265255   T   T   T
  0.4241621499800082  0.4999180723738856  0.9766550814758781   T   T   T
  0.4277702112964862  0.9999613401198507  0.5110318290781992   T   T   T
  0.9487686571576269  0.5000050461132877  0.4470370498641359   T   T   T
 
  0.00000000E+00  0.00000000E+00  0.00000000E+00
  0.00000000E+00  0.00000000E+00  0.00000000E+00
  0.00000000E+00  0.00000000E+00  0.00000000E+00
  0.00000000E+00  0.00000000E+00  0.00000000E+00
  0.00000000E+00  0.00000000E+00  0.00000000E+00
  0.00000000E+00  0.00000000E+00  0.00000000E+00
  0.00000000E+00  0.00000000E+00  0.00000000E+00
  0.00000000E+00  0.00000000E+00  0.00000000E+00
  0.00000000E+00  0.00000000E+00  0.00000000E+00
  0.00000000E+00  0.00000000E+00  0.00000000E+00
  0.00000000E+00  0.00000000E+00  0.00000000E+00
  0.00000000E+00  0.00000000E+00  0.00000000E+00
