NCORE=4
NPAR=9
# INCAR file for HSE06 SCF calculation in VASP

# General parameters
SYSTEM = YourSystemName
PREC = Accurate      # Precision level
EDIFF = 1E-6         # Energy convergence criterion
ENCUT = 250          # Energy cutoff for plane-wave basis set
ISMEAR = 0           # Gaussian smearing for SCF calculation
SIGMA = 0.1          # Smearing parameter

# SCF calculation settings
IBRION = -1          # No relaxation during the SCF calculation
ISIF = 2             # Optimize cell shape while keeping volume constant
NSW = 0              # No ionic steps during the SCF calculation
#ICHARG = 11           # Read wavefunctions from WAVECAR
LORBIT = 11          # Write orbital projections to WAVECAR
ISYM = 0             # No symmetry-related analysis

# Hybrid functional settings
LHFCALC = .TRUE.     # Use HSE06 hybrid functional
HFSCREEN = 0.2       # HSE06 screening parameter
ALGO = All           # Algorithm for hybrid functional
TIME = 0.4           # Time parameter for hybrid functional

# Electronic structure parameters
ISTART = 0           # Start from scratch
